(declare-rel fail ())
(declare-rel init ())
(declare-rel inv (Int ))
(declare-var x Int)
(declare-var x1 Int)

(rule (=> (and
	(= x 0))
	(inv x)))
(rule (=> (and (inv x)
	(< x 5)
	(= x1 (+ x 1)))
	(inv x1)))
(rule (=> (and (inv x)
	(>= x 5)
	(not (= x 5)))
	fail))
(query fail)